0 0 0 0
0 1 2 14
0 2 0 0
0 3 1 0
0 4 2 2
0 5 2 7
0 6 0 2
0 7 0 9
0 8 1 16
0 9 1 12
0 10 0 10
0 11 2 7
0 12 2 14
0 13 2 11
0 14 1 22
0 15 2 16
0 16 2 9
0 17 1 15
0 18 2 19
0 19 2 21
0 20 0 20
0 21 2 21
0 22 0 24
0 23 2 25
0 24 0 31
0 25 2 31
0 26 2 31
0 27 2 30
0 28 2 37
0 29 0 37
0 30 1 39
0 31 0 42
